Gurobi Optimizer version 9.1.2 build v9.1.2rc0 (linux64)
Thread count: 36 physical cores, 72 logical processors, using up to 32 threads
Optimize a model with 12 rows, 57 columns and 590 nonzeros
Model fingerprint: 0xf32eec78
Model has 47 quadratic constraints
Coefficient statistics:
  Matrix range     [2e-05, 3e+00]
  QMatrix range    [1e+00, 1e+00]
  QLMatrix range   [1e+00, 1e+00]
  Objective range  [8e-03, 7e-01]
  Bounds range     [1e+00, 1e+00]
  RHS range        [1e+00, 1e+00]
Presolve removed 9 rows and 0 columns

Continuous model is non-convex -- solving as a MIP.

Presolve removed 9 rows and 0 columns
Presolve time: 0.00s
Presolved: 189 rows, 57 columns, 443 nonzeros
Presolved model has 47 bilinear constraint(s)
Variable types: 57 continuous, 0 integer (0 binary)

Root relaxation: objective -1.743721e+00, 44 iterations, 0.00 seconds

    Nodes    |    Current Node    |     Objective Bounds      |     Work
 Expl Unexpl |  Obj  Depth IntInf | Incumbent    BestBd   Gap | It/Node Time

     0     0   -1.74372    0   38          -   -1.74372      -     -    0s
H    0     0                       0.6147548   -1.74372   384%     -    0s
     0     0   -1.64739    0    1    0.61475   -1.64739   368%     -    0s
H    0     0                      -1.6450460   -1.64739  0.14%     -    0s
     0     0     cutoff    0        -1.64505   -1.64505  0.00%     -    0s

Cutting planes:
  RLT: 25
  BQP: 3

Explored 1 nodes (76 simplex iterations) in 0.01 seconds
Thread count was 32 (of 72 available processors)

Solution count 2: -1.64505 0.614755 
No other solutions better than -1.64505

Optimal solution found (tolerance 1.00e-04)
Best objective -1.645045978473e+00, best bound -1.645045978473e+00, gap 0.0000%

User-callback calls 78, time in user-callback 0.00 sec
Gurobi Optimizer version 9.1.2 build v9.1.2rc0 (linux64)
Thread count: 36 physical cores, 72 logical processors, using up to 32 threads
Optimize a model with 24 rows, 125 columns and 2580 nonzeros
Model fingerprint: 0x1e1a95cf
Model has 105 quadratic constraints
Coefficient statistics:
  Matrix range     [5e-06, 5e+01]
  QMatrix range    [1e+00, 1e+00]
  QLMatrix range   [1e+00, 1e+00]
  Objective range  [1e-02, 1e+00]
  Bounds range     [1e+00, 1e+00]
  RHS range        [1e+00, 1e+00]
Presolve removed 10 rows and 0 columns

Continuous model is non-convex -- solving as a MIP.

Presolve removed 10 rows and 0 columns
Presolve time: 0.00s
Presolved: 429 rows, 125 columns, 2142 nonzeros
Presolved model has 105 bilinear constraint(s)
Variable types: 125 continuous, 0 integer (0 binary)

Root relaxation: objective -4.671563e+00, 137 iterations, 0.00 seconds

    Nodes    |    Current Node    |     Objective Bounds      |     Work
 Expl Unexpl |  Obj  Depth IntInf | Incumbent    BestBd   Gap | It/Node Time

     0     0   -4.67156    0   95          -   -4.67156      -     -    0s
H    0     0                       0.0038789   -4.67156      -     -    0s
     0     0   -3.96004    0   83    0.00388   -3.96004      -     -    0s
H    0     0                      -2.1273148   -3.96004  86.2%     -    0s
     0     0   -3.95014    0   83   -2.12731   -3.95014  85.7%     -    0s
     0     0   -3.78612    0   66   -2.12731   -3.78612  78.0%     -    0s
     0     0   -3.77744    0   66   -2.12731   -3.77744  77.6%     -    0s
     0     0   -3.74320    0   72   -2.12731   -3.74320  76.0%     -    0s
     0     0   -3.73394    0   65   -2.12731   -3.73394  75.5%     -    0s
     0     0   -3.71735    0   66   -2.12731   -3.71735  74.7%     -    0s
     0     0   -3.71534    0   77   -2.12731   -3.71534  74.6%     -    0s
     0     0   -3.71193    0   66   -2.12731   -3.71193  74.5%     -    0s
     0     0   -3.71147    0   66   -2.12731   -3.71147  74.5%     -    0s
     0     0   -3.71031    0   66   -2.12731   -3.71031  74.4%     -    0s
     0     0   -3.71028    0   66   -2.12731   -3.71028  74.4%     -    0s
     0     0   -3.70956    0   83   -2.12731   -3.70956  74.4%     -    0s
H    0     0                      -2.6973290   -3.70956  37.5%     -    0s
H    0     0                      -3.0046960   -3.70956  23.5%     -    0s
H    0     0                      -3.0880175   -3.70956  20.1%     -    0s
     0     2   -3.70956    0   83   -3.08802   -3.70956  20.1%     -    0s
*  500   267              16      -3.0884803   -3.36454  8.94%  35.1    0s
*  733   467              25      -3.0913010   -3.36454  8.84%  28.3    0s
*  735   467              26      -3.0913221   -3.36454  8.84%  28.2    0s
*  765   467              27      -3.1384262   -3.36454  7.20%  27.8    0s
*  796   467              24      -3.1990374   -3.36454  5.17%  27.1    0s
*  968   395              20      -3.2071064   -3.33438  3.97%  23.8    0s
* 1072   402              25      -3.2220585   -3.25602  1.05%  22.3    0s
* 1073   402              25      -3.2233611   -3.25602  1.01%  22.2    0s
* 1074   402              24      -3.2237893   -3.25602  1.00%  22.2    0s
* 1537   128              21      -3.2271904   -3.24254  0.48%  16.6    0s
* 1544   128              18      -3.2299336   -3.24254  0.39%  16.6    0s
* 1546   128              19      -3.2301754   -3.24254  0.38%  16.6    0s
* 1547   128              19      -3.2301769   -3.24254  0.38%  16.5    0s
* 1613   128              19      -3.2314061   -3.24254  0.34%  16.2    0s
* 1614   128              19      -3.2315782   -3.24254  0.34%  16.2    0s
* 1762    84              20      -3.2330823   -3.23659  0.11%  15.2    0s
* 1764    84              21      -3.2331701   -3.23659  0.11%  15.2    0s
* 1778    84              16      -3.2338469   -3.23659  0.08%  15.1    0s
* 1824    84              17      -3.2342246   -3.23659  0.07%  14.9    0s
* 1933     0              15      -3.2343114   -3.23435  0.00%  14.2    0s
* 1969     0              16      -3.2343133   -3.23431  0.00%  14.0    0s

Cutting planes:
  RLT: 57
  BQP: 9
  PSD: 55

Explored 1989 nodes (27996 simplex iterations) in 0.67 seconds
Thread count was 32 (of 72 available processors)

Solution count 10: -3.23431 -3.23431 -3.23422 ... -3.23018
No other solutions better than -3.23431

Optimal solution found (tolerance 1.00e-04)
Best objective -3.234313307199e+00, best bound -3.234313307199e+00, gap 0.0000%

User-callback calls 4261, time in user-callback 0.00 sec



objective value: -3.2343133071993173
objective bound: -3.2343133071993173
x_opt: [0.0, 0.0, 1.0, 0.0, 1.0, 0.6715550119277824, 1.0, 1.0, 0.9999998172895086, 0.0, 0.0, 0.19782070075698857, 0.0, 0.0, 0.0, 0.494054301244087, 0.0, 0.0, 0.0055171339040646136, 0.0]
GUROBI solution time: 0.6680960655212402




